p edge 150 1118
e 1 6
e 1 30
e 1 42
e 1 46
e 1 47
e 1 50
e 1 51
e 1 85
e 1 108
e 1 121
e 1 142
e 2 3
e 2 8
e 2 21
e 2 31
e 2 33
e 2 38
e 2 46
e 2 50
e 2 61
e 2 62
e 2 69
e 2 80
e 2 86
e 2 88
e 2 96
e 2 99
e 2 126
e 2 131
e 3 5
e 3 14
e 3 24
e 3 34
e 3 35
e 3 37
e 3 42
e 3 45
e 3 50
e 3 57
e 3 85
e 3 87
e 3 98
e 3 101
e 3 118
e 3 123
e 3 130
e 4 12
e 4 24
e 4 29
e 4 36
e 4 39
e 4 44
e 4 62
e 4 67
e 4 72
e 4 120
e 4 131
e 4 144
e 5 16
e 5 38
e 5 42
e 5 48
e 5 77
e 5 87
e 5 90
e 5 94
e 5 98
e 5 117
e 5 121
e 5 122
e 5 124
e 5 138
e 5 139
e 6 8
e 6 23
e 6 44
e 6 61
e 6 74
e 6 99
e 6 143
e 7 29
e 7 30
e 7 35
e 7 51
e 7 52
e 7 53
e 7 82
e 7 85
e 7 93
e 7 116
e 7 127
e 7 136
e 7 140
e 8 18
e 8 32
e 8 49
e 8 68
e 8 94
e 8 98
e 8 108
e 8 134
e 8 136
e 9 12
e 9 31
e 9 32
e 9 36
e 9 54
e 9 60
e 9 65
e 9 72
e 9 85
e 9 95
e 9 97
e 9 101
e 9 109
e 9 127
e 10 19
e 10 29
e 10 33
e 10 41
e 10 43
e 10 49
e 10 53
e 10 70
e 10 84
e 10 86
e 10 125
e 10 145
e 10 146
e 11 12
e 11 22
e 11 76
e 11 78
e 11 90
e 11 107
e 11 115
e 11 122
e 11 129
e 11 136
e 11 142
e 12 17
e 12 20
e 12 26
e 12 37
e 12 47
e 12 49
e 12 50
e 12 55
e 12 63
e 12 66
e 12 72
e 12 75
e 12 94
e 12 129
e 12 139
e 12 144
e 13 26
e 13 28
e 13 31
e 13 35
e 13 47
e 13 48
e 13 50
e 13 52
e 13 70
e 13 74
e 13 75
e 13 81
e 13 92
e 13 114
e 13 118
e 13 126
e 13 127
e 13 130
e 13 147
e 14 25
e 14 36
e 14 39
e 14 40
e 14 49
e 14 55
e 14 84
e 14 107
e 14 114
e 14 115
e 14 118
e 14 124
e 14 143
e 15 18
e 15 43
e 15 54
e 15 70
e 15 71
e 15 74
e 15 80
e 15 89
e 15 102
e 15 104
e 15 112
e 15 115
e 15 118
e 15 124
e 15 126
e 15 143
e 15 147
e 16 29
e 16 36
e 16 55
e 16 70
e 16 75
e 16 81
e 16 87
e 16 121
e 16 138
e 17 25
e 17 31
e 17 35
e 17 45
e 17 69
e 17 71
e 17 82
e 17 88
e 17 96
e 17 101
e 17 123
e 17 129
e 17 134
e 18 23
e 18 50
e 18 53
e 18 55
e 18 76
e 18 83
e 18 84
e 18 92
e 18 103
e 18 107
e 18 143
e 18 149
e 19 21
e 19 22
e 19 29
e 19 40
e 19 50
e 19 60
e 19 64
e 19 90
e 19 92
e 19 142
e 20 21
e 20 28
e 20 30
e 20 38
e 20 39
e 20 44
e 20 53
e 20 60
e 20 62
e 20 63
e 20 77
e 20 83
e 20 85
e 20 98
e 20 101
e 20 110
e 20 120
e 20 146
e 20 150
e 21 25
e 21 26
e 21 34
e 21 45
e 21 47
e 21 52
e 21 56
e 21 76
e 21 93
e 21 97
e 21 111
e 21 114
e 21 124
e 21 127
e 21 128
e 21 131
e 21 139
e 21 150
e 22 45
e 22 57
e 22 64
e 22 108
e 22 128
e 22 133
e 22 144
e 23 36
e 23 37
e 23 45
e 23 50
e 23 120
e 23 146
e 24 30
e 24 69
e 24 77
e 24 81
e 24 85
e 24 89
e 24 93
e 24 101
e 24 110
e 24 112
e 24 117
e 24 132
e 24 135
e 24 136
e 24 137
e 24 141
e 25 32
e 25 40
e 25 48
e 25 55
e 25 59
e 25 63
e 25 64
e 25 72
e 25 87
e 25 107
e 25 115
e 25 120
e 25 128
e 25 136
e 25 141
e 25 147
e 26 35
e 26 56
e 26 63
e 26 103
e 26 119
e 26 125
e 26 134
e 26 147
e 27 29
e 27 39
e 27 55
e 27 57
e 27 67
e 27 77
e 27 111
e 27 122
e 27 134
e 27 144
e 27 147
e 28 48
e 28 61
e 28 62
e 28 72
e 28 75
e 28 87
e 28 120
e 28 141
e 28 142
e 28 145
e 29 34
e 29 51
e 29 54
e 29 57
e 29 71
e 29 72
e 29 89
e 29 105
e 29 112
e 29 113
e 29 119
e 29 147
e 30 32
e 30 43
e 30 52
e 30 59
e 30 64
e 30 93
e 30 109
e 30 119
e 30 128
e 30 136
e 30 137
e 30 141
e 31 45
e 31 54
e 31 58
e 31 70
e 31 72
e 31 74
e 31 86
e 31 87
e 31 101
e 31 105
e 31 109
e 31 115
e 31 140
e 32 33
e 32 35
e 32 40
e 32 42
e 32 65
e 32 102
e 32 104
e 32 107
e 32 119
e 32 139
e 32 141
e 32 150
e 33 38
e 33 46
e 33 51
e 33 52
e 33 78
e 33 98
e 33 105
e 33 129
e 33 137
e 33 144
e 34 47
e 34 55
e 34 76
e 34 84
e 34 102
e 34 103
e 34 106
e 34 107
e 34 108
e 34 120
e 34 128
e 34 129
e 34 132
e 34 143
e 34 149
e 34 150
e 35 49
e 35 63
e 35 79
e 35 85
e 35 86
e 35 96
e 35 107
e 35 123
e 35 129
e 35 130
e 35 149
e 35 150
e 36 60
e 36 67
e 36 76
e 36 82
e 36 85
e 36 86
e 36 137
e 36 148
e 37 38
e 37 42
e 37 57
e 37 87
e 37 128
e 37 130
e 37 134
e 37 150
e 38 42
e 38 62
e 38 64
e 38 65
e 38 100
e 38 110
e 38 113
e 38 116
e 38 118
e 38 119
e 38 126
e 38 134
e 38 136
e 38 147
e 39 40
e 39 42
e 39 45
e 39 59
e 39 64
e 39 67
e 39 88
e 39 98
e 39 100
e 39 103
e 39 110
e 39 111
e 39 125
e 39 126
e 39 127
e 39 129
e 39 134
e 39 135
e 39 150
e 40 48
e 40 68
e 40 69
e 40 72
e 40 74
e 40 77
e 40 92
e 40 94
e 40 95
e 40 106
e 40 112
e 40 119
e 40 122
e 40 128
e 40 129
e 40 132
e 40 133
e 40 135
e 40 140
e 41 43
e 41 65
e 41 81
e 41 94
e 41 110
e 41 114
e 41 118
e 41 125
e 41 134
e 41 139
e 42 50
e 42 67
e 42 75
e 42 92
e 42 105
e 42 106
e 42 110
e 42 111
e 42 112
e 42 113
e 42 120
e 42 138
e 42 143
e 43 47
e 43 52
e 43 59
e 43 62
e 43 67
e 43 84
e 43 94
e 43 118
e 43 119
e 43 126
e 43 136
e 43 145
e 44 59
e 44 60
e 44 95
e 44 133
e 44 136
e 44 140
e 45 54
e 45 65
e 45 85
e 45 91
e 45 95
e 45 102
e 45 114
e 45 122
e 46 54
e 46 59
e 46 82
e 46 103
e 46 107
e 46 108
e 46 119
e 46 137
e 47 62
e 47 72
e 47 79
e 47 88
e 47 94
e 47 125
e 47 129
e 47 131
e 47 139
e 48 49
e 48 80
e 48 99
e 48 105
e 48 117
e 48 123
e 48 144
e 49 53
e 49 54
e 49 68
e 49 78
e 49 93
e 49 112
e 49 117
e 49 128
e 49 134
e 49 137
e 49 148
e 50 58
e 50 61
e 50 66
e 50 77
e 50 91
e 50 103
e 50 107
e 50 111
e 50 112
e 50 118
e 50 119
e 50 134
e 50 146
e 51 69
e 51 75
e 51 81
e 51 129
e 51 137
e 51 147
e 52 69
e 52 82
e 52 86
e 52 88
e 52 94
e 52 100
e 52 105
e 52 110
e 52 113
e 52 122
e 52 130
e 52 148
e 53 60
e 53 64
e 53 72
e 53 78
e 53 94
e 53 102
e 53 107
e 53 108
e 53 135
e 53 144
e 54 61
e 54 66
e 54 69
e 54 76
e 54 77
e 54 91
e 54 94
e 54 106
e 54 107
e 54 111
e 54 118
e 54 122
e 54 127
e 54 144
e 54 148
e 55 60
e 55 72
e 55 73
e 55 74
e 55 78
e 55 86
e 55 87
e 55 114
e 55 121
e 55 142
e 56 58
e 56 71
e 56 85
e 56 89
e 56 93
e 56 94
e 56 98
e 56 104
e 56 137
e 56 139
e 57 60
e 57 66
e 57 69
e 57 72
e 57 74
e 57 81
e 57 86
e 57 98
e 57 119
e 57 127
e 57 139
e 57 149
e 58 61
e 58 77
e 58 88
e 58 111
e 58 117
e 59 96
e 59 100
e 59 116
e 59 138
e 59 145
e 59 146
e 60 67
e 60 70
e 60 74
e 60 80
e 60 82
e 60 87
e 60 89
e 60 91
e 60 116
e 60 121
e 60 122
e 60 132
e 60 133
e 60 142
e 60 145
e 61 76
e 61 81
e 61 88
e 61 97
e 61 99
e 61 100
e 61 107
e 61 118
e 61 126
e 61 133
e 61 140
e 61 149
e 61 150
e 62 82
e 62 94
e 62 96
e 62 124
e 62 126
e 62 148
e 63 77
e 63 79
e 63 109
e 63 127
e 63 148
e 63 149
e 64 65
e 64 80
e 64 82
e 64 83
e 64 101
e 64 109
e 64 112
e 64 137
e 64 144
e 65 83
e 65 98
e 65 106
e 65 111
e 65 114
e 65 115
e 65 117
e 65 125
e 65 136
e 66 67
e 66 99
e 66 100
e 66 107
e 66 113
e 66 114
e 66 118
e 66 119
e 66 122
e 66 129
e 66 136
e 66 145
e 67 102
e 67 103
e 67 117
e 67 128
e 67 134
e 67 146
e 67 147
e 68 75
e 68 149
e 69 70
e 69 71
e 69 89
e 69 93
e 69 106
e 69 115
e 69 125
e 69 138
e 69 144
e 70 97
e 70 99
e 70 102
e 70 103
e 70 112
e 70 116
e 70 123
e 70 134
e 70 138
e 70 140
e 71 82
e 71 93
e 71 98
e 71 125
e 71 127
e 72 73
e 72 86
e 72 90
e 72 96
e 72 101
e 72 115
e 72 136
e 73 84
e 73 87
e 73 115
e 73 137
e 73 149
e 74 76
e 74 82
e 74 86
e 74 89
e 74 96
e 74 100
e 74 127
e 74 135
e 74 140
e 74 143
e 75 79
e 75 86
e 75 107
e 75 113
e 75 127
e 75 149
e 76 85
e 76 95
e 76 97
e 76 117
e 76 119
e 76 128
e 76 139
e 76 144
e 76 147
e 77 84
e 77 87
e 77 88
e 77 90
e 77 92
e 77 93
e 77 94
e 77 96
e 77 98
e 77 102
e 77 126
e 77 139
e 77 149
e 78 85
e 78 91
e 78 99
e 78 101
e 78 117
e 78 125
e 79 82
e 79 94
e 79 95
e 79 96
e 79 104
e 79 113
e 79 128
e 79 129
e 79 139
e 79 147
e 79 149
e 80 84
e 80 86
e 80 94
e 80 97
e 80 139
e 80 141
e 80 149
e 81 84
e 81 85
e 81 117
e 81 128
e 81 133
e 81 148
e 82 84
e 82 96
e 82 97
e 82 98
e 82 106
e 82 110
e 82 115
e 82 117
e 82 121
e 82 143
e 82 144
e 83 98
e 83 111
e 83 119
e 83 121
e 83 123
e 83 133
e 83 147
e 84 85
e 84 99
e 84 102
e 84 123
e 84 135
e 84 137
e 84 142
e 85 92
e 85 99
e 85 124
e 85 129
e 85 130
e 85 140
e 86 99
e 86 103
e 86 124
e 86 145
e 86 148
e 87 97
e 87 101
e 87 103
e 87 117
e 87 122
e 87 125
e 87 127
e 87 137
e 87 140
e 87 147
e 87 149
e 88 101
e 88 118
e 88 128
e 88 129
e 88 147
e 88 150
e 89 106
e 89 124
e 89 136
e 90 95
e 90 114
e 90 145
e 90 148
e 91 97
e 91 130
e 91 138
e 91 143
e 91 144
e 91 150
e 92 95
e 92 99
e 92 102
e 92 104
e 92 128
e 92 129
e 92 140
e 92 147
e 93 98
e 93 99
e 93 113
e 93 117
e 93 131
e 93 138
e 93 142
e 94 114
e 94 118
e 94 121
e 94 126
e 95 97
e 95 103
e 95 115
e 95 125
e 95 129
e 96 103
e 96 105
e 96 109
e 96 124
e 96 127
e 96 137
e 97 103
e 97 116
e 98 106
e 98 113
e 98 119
e 98 122
e 98 126
e 98 129
e 98 135
e 98 139
e 99 106
e 99 116
e 99 135
e 99 143
e 100 104
e 100 105
e 100 138
e 101 102
e 101 105
e 101 118
e 101 138
e 102 117
e 102 119
e 102 134
e 102 141
e 102 142
e 102 147
e 103 133
e 103 145
e 103 149
e 104 105
e 104 116
e 104 126
e 104 142
e 104 147
e 105 107
e 105 112
e 105 119
e 105 120
e 105 121
e 106 120
e 106 129
e 106 141
e 107 112
e 107 115
e 107 127
e 107 133
e 107 142
e 108 111
e 108 127
e 108 129
e 109 110
e 109 126
e 109 134
e 110 115
e 110 125
e 110 146
e 111 120
e 111 134
e 111 141
e 112 123
e 112 124
e 112 130
e 112 132
e 112 133
e 113 117
e 113 126
e 113 129
e 113 134
e 113 143
e 114 120
e 114 121
e 114 135
e 114 142
e 115 117
e 115 137
e 115 144
e 115 149
e 115 150
e 116 118
e 116 119
e 117 127
e 117 149
e 118 125
e 118 136
e 119 121
e 119 126
e 119 136
e 119 139
e 119 142
e 120 124
e 120 130
e 120 132
e 120 138
e 121 136
e 121 142
e 123 130
e 124 135
e 124 138
e 124 147
e 124 150
e 125 131
e 125 133
e 125 141
e 126 137
e 126 142
e 127 144
e 128 131
e 128 137
e 128 140
e 129 138
e 129 144
e 130 131
e 130 138
e 130 139
e 130 141
e 131 133
e 131 140
e 131 143
e 131 146
e 131 147
e 132 139
e 132 147
e 133 140
e 133 150
e 134 145
e 134 147
e 135 141
e 137 147
e 137 149
e 138 147
e 139 145
e 139 146
e 139 149
e 140 145
e 141 145
e 142 149
e 143 146
e 143 148
e 146 149
e 148 150
